c read Graph
c width = 82
c time = 55 ms
c width = 5
c time = 105 ms
c width = 5
c time = 5004 ms
s td 91 6 95
b 1 1 2 20
b 2 2 3 20 21
b 3 17 18 37 38
b 4 3 20 21 39
b 5 17 37 38 57
b 6 39 58 59 78
b 7 57 75 76 94
b 8 39 59 78 79
b 9 57 75 93 94
b 10 3 4 5 23
b 11 5 6 7 25
b 12 7 8 9 27
b 13 9 10 11 29
b 14 11 12 13 31
b 15 13 14 15 33
b 16 15 16 17 35
b 17 3 21 22 39 40
b 18 17 36 37 56 57
b 19 39 40 59 60 79
b 20 56 57 74 75 93
b 21 39 40 60 79 80
b 22 62 80 81 82
b 23 64 82 83 84
b 24 66 84 85 86
b 25 68 86 87 88
b 26 70 88 89 90
b 27 72 90 91 92
b 28 56 57 74 92 93
b 29 5 23 24 25 43
b 30 7 25 26 27 45
b 31 9 27 28 29 47
b 32 11 29 30 31 49
b 33 13 31 32 33 51
b 34 15 33 34 35 53
b 35 3 22 39 40 60 80
b 36 3 22 40 41 60 80
b 37 3 22 23 41 60 80
b 38 3 5 23 41 60 80
b 39 5 23 41 42 60 80
b 40 5 23 42 60 61 80
b 41 5 23 42 43 61 80
b 42 5 23 25 43 61 80
b 43 5 25 43 61 62 80
b 44 5 7 25 43 62 80
b 45 7 25 43 44 62 80
b 46 44 62 63 64 82
b 47 7 25 44 62 80 82
b 48 7 25 44 62 64 82
b 49 7 25 44 45 64 82
b 50 7 25 27 45 64 82
b 51 7 9 27 45 64 82
b 52 9 27 45 46 64 82
b 53 46 64 65 66 84
b 54 9 27 46 64 82 84
b 55 9 27 46 64 66 84
b 56 9 27 46 47 66 84
b 57 9 27 29 47 66 84
b 58 9 11 29 47 66 84
b 59 11 29 47 48 66 84
b 60 48 66 67 68 86
b 61 11 29 48 66 84 86
b 62 11 29 48 66 68 86
b 63 11 29 48 49 68 86
b 64 11 29 31 49 68 86
b 65 11 13 31 49 68 86
b 66 13 31 49 50 68 86
b 67 50 68 69 70 88
b 68 13 31 50 68 86 88
b 69 13 31 50 68 70 88
b 70 13 31 50 51 70 88
b 71 13 31 33 51 70 88
b 72 13 15 33 51 70 88
b 73 15 33 51 52 70 88
b 74 52 70 71 72 90
b 75 15 33 52 70 88 90
b 76 15 33 52 70 72 90
b 77 15 33 52 53 72 90
b 78 15 33 35 53 72 90
b 79 15 17 35 53 72 90
b 80 17 35 53 54 72 90
b 81 17 35 36 54 72 90
b 82 36 54 55 56 74
b 83 54 72 73 74 92
b 84 17 36 54 72 90 92
b 85 17 36 56 57 74 92
b 86 17 36 54 56 74 92
b 87 17 36 54 72 74 92
b 88 54 72 74 92
b 89 76 94 95
b 90 58 77 78
b 91 18 19 38
1 2
2 4
3 91
3 5
4 17
5 18
6 90
6 8
7 89
7 9
8 19
9 20
10 38
11 44
12 51
13 58
14 65
15 72
16 79
17 35
18 85
19 21
20 28
21 35
22 47
23 54
24 61
25 68
26 75
27 84
28 85
29 42
30 50
31 57
32 64
33 71
34 78
35 36
36 37
37 38
38 39
39 40
40 41
41 42
42 43
43 44
44 45
45 47
46 48
47 48
48 49
49 50
50 51
51 52
52 54
53 55
54 55
55 56
56 57
57 58
58 59
59 61
60 62
61 62
62 63
63 64
64 65
65 66
66 68
67 69
68 69
69 70
70 71
71 72
72 73
73 75
74 76
75 76
76 77
77 78
78 79
79 80
80 81
81 84
82 86
83 88
84 87
85 86
86 87
87 88
